DIMENSION :7
NODE_COORD_SECTION
1 69.64791099988977 64.4302534657235
2 83.01771499603618 75.513211317392
3 -58.50221501932686 -25.390126089467472
4 72.94464175390513 48.15979089955053
5 96.57719960069065 13.338955093073594
6 -70.82357047506711 46.05766232515526
7 14.615990906674739 79.66826431843415
EOF
